720406
152,32,223,102,103,37,202,5,222,175,219,43,63,29,136,59,137,14,7,119,96,193,12,16,46,224,47,110,133,18,226,124,45,213,163,196,142,10,138,57,58,212,92,167,44,211,229,203,171,220,51,166,78,94,56,75,173,64,153,13,164,109,200,9,197,199,28,83,192,194,135,205,217,69,85,125,208,72,112,159,41,50,97,198,177,30,42,126,146,66,206,38,73,156,82,134,70,139,161,35,228,132,154,111,26,168,39,80,101,129,77,54,61,86,34,93,107,49,150,27,214,74,204,33,36,191,178,195,106,160,115,183,100,165,8,67,90,95,88,21,25,143,144,210,155,4,116,19,182,209,6,0,71,62,31,117,48,162,15,188,184,2,207,158,22,68,225,176,121,151,190,113,118,180,172,123,187,84,122,130,147,181,60,24,79,131,148,114,1,81,157,76,221,40,127,140,23,65,104,215,99,52,91,17,55,53,174,201,98,189,218,105,120,179,186,11,145,128,227,87,108,89,185,170,149,169,141,3,20,216
